Please solve the following SAT Problem encoded in DIMACS format, only return a single solution assignment without explanations, if there is any: 
p cnf 10 50
-7 -8 5 0
3 -4 -6 0
-7 3 6 0
2 -8 3 0
-5 -10 7 0
-8 1 -7 0
-10 -1 6 0
-9 -4 -8 0
6 -7 -10 0
4 3 -10 0
7 -9 -8 0
6 5 -8 0
-8 -2 -9 0
5 -7 -9 0
2 -10 6 0
6 -8 -3 0
-9 6 -1 0
-8 -1 -7 0
-10 -8 -9 0
-9 -5 1 0
-8 -1 6 0
-5 -8 -10 0
-8 -7 -5 0
-2 -8 -1 0
-4 -5 -10 0
6 -4 -1 0
10 -1 8 0
-8 1 -4 0
1 -7 -2 0
-1 -7 -9 0
3 -4 -7 0
-2 10 -7 0
-5 -3 6 0
5 3 -10 0
-1 8 3 0
6 -5 8 0
-2 -4 -1 0
-10 -4 -8 0
-8 -1 3 0
-4 2 -9 0
-4 -8 6 0
-10 -2 -8 0
6 -8 -10 0
-1 -8 -7 0
-5 -4 -8 0
-6 3 8 0
-1 8 2 0
-5 -1 -3 0
-1 6 -9 0
4 -3 6 0

